Data path: /scratch/opt/lxu/CFLG/benchmarks/tree_B
Instance: treeB.700.35
Result path: /scratch/opt/lxu/CFLG/results/tree_B
Solver: Gurobi
Time limit: 7200
Formulation: LEVFP
Cover: Large
julia --project=. src/main.jl /scratch/opt/lxu/CFLG/benchmarks/tree_B treeB.700.35 /scratch/opt/lxu/CFLG/results/tree_B Gurobi 7200 LEVFP Large
The latest version of Julia in the `release` channel is 1.11.5+0.x64.linux.gnu. You currently have `1.11.4+0.x64.linux.gnu` installed. Run:

  juliaup update

in your terminal shell to install Julia 1.11.5+0.x64.linux.gnu and update the `release` channel to that version.
/scratch/opt/lxu/CFLG/benchmarks/tree_B Gurobi 7200.0 /scratch/opt/lxu/CFLG/results/tree_B treeB.700.35 LEVFP Large
/scratch/opt/lxu/CFLG/benchmarks/tree_B/treeB.700.35

 read graph
data loaded

problem_graph/original graph: node: 700/700 edge: 734/734 dlt: 2.9997419292633585 break_avg_len: 1.4998709646316792 break_max_len: 1.9999766211030285elapsed CPU time: 0.21259 seconds
Set parameter TokenServer to value "solice01.zib.de"
Set parameter Threads to value 1
Set parameter OutputFlag to value 1
Set parameter MIPGap to value 0.0001
Set parameter MIPGapAbs to value 0.999998
Set parameter TimeLimit to value 7199.78741

 model loaded

Gurobi Optimizer version 12.0.1 build v12.0.1rc0 (linux64 - "Debian GNU/Linux 12 (bookworm)")

CPU model: Intel(R) Xeon(R) Gold 5122 CPU @ 3.60GHz, instruction set [SSE2|AVX|AVX2|AVX512]
Thread count: 8 physical cores, 16 logical processors, using up to 1 threads

Non-default parameters:
TimeLimit  7199.78741
MIPGapAbs  0.999998
Threads  1

Optimize a model with 28576 rows, 12686 columns and 76940 nonzeros
Model fingerprint: 0x09d2ccb3
Variable types: 1434 continuous, 11252 integer (11252 binary)
Coefficient statistics:
  Matrix range     [1e-06, 4e+00]
  Objective range  [1e+00, 1e+00]
  Bounds range     [1e+00, 2e+00]
  RHS range        [1e+00, 4e+00]
Found heuristic solution: objective 417.0000000
Presolve removed 8782 rows and 1220 columns
Presolve time: 0.85s
Presolved: 19794 rows, 11466 columns, 77240 nonzeros
Variable types: 1415 continuous, 10051 integer (10051 binary)

Root relaxation: objective 1.307312e+02, 9102 iterations, 0.22 seconds (0.16 work units)

    Nodes    |    Current Node    |     Objective Bounds      |     Work
 Expl Unexpl |  Obj  Depth IntInf | Incumbent    BestBd   Gap | It/Node Time

     0     0  130.73118    0  783  417.00000  130.73118  68.6%     -    1s
H    0     0                     166.0000000  130.73118  21.2%     -    1s
H    0     0                     164.0000000  130.73118  20.3%     -    1s
H    0     0                     157.0000000  130.73118  16.7%     -    1s
     0     0  142.53470    0  732  157.00000  142.53470  9.21%     -    2s
     0     0  142.56652    0  714  157.00000  142.56652  9.19%     -    2s
     0     0  142.56652    0  716  157.00000  142.56652  9.19%     -    2s
     0     0  145.41305    0  593  157.00000  145.41305  7.38%     -    2s
     0     0  145.42594    0  607  157.00000  145.42594  7.37%     -    2s
     0     0  145.42594    0  605  157.00000  145.42594  7.37%     -    2s
     0     0  145.44374    0  625  157.00000  145.44374  7.36%     -    2s
     0     0  145.44374    0  625  157.00000  145.44374  7.36%     -    2s
     0     0  146.48051    0  529  157.00000  146.48051  6.70%     -    2s
H    0     0                     155.0000000  146.48051  5.50%     -    2s
     0     0  146.53379    0  561  155.00000  146.53379  5.46%     -    3s
     0     0  146.53970    0  587  155.00000  146.53970  5.46%     -    3s
     0     0  146.53970    0  578  155.00000  146.53970  5.46%     -    3s
     0     0  146.74472    0  441  155.00000  146.74472  5.33%     -    3s
     0     0  146.76839    0  448  155.00000  146.76839  5.31%     -    3s
     0     0  146.76839    0  453  155.00000  146.76839  5.31%     -    3s
     0     0  146.78030    0  412  155.00000  146.78030  5.30%     -    3s
H    0     0                     154.0000000  146.78855  4.68%     -    3s
     0     0  146.78855    0  510  154.00000  146.78855  4.68%     -    3s
     0     0  146.78855    0  496  154.00000  146.78855  4.68%     -    3s
     0     0  146.78855    0  520  154.00000  146.78855  4.68%     -    3s
     0     0  146.78855    0  150  154.00000  146.78855  4.68%     -    4s
H    0     0                     153.0000000  146.78855  4.06%     -    4s
H    0     0                     151.0000000  146.78855  2.79%     -    4s
     0     2  146.86443    0  146  151.00000  146.86443  2.74%     -    4s
     2     4  146.89281    2  137  151.00000  146.89281  2.72%  1040    5s
H   54    41                     150.0000000  147.00207  2.00%  68.4    5s
   654   415  149.00000   31   82  150.00000  147.50000  1.67%  43.0   10s
   665   423  149.00000   27  249  150.00000  147.50000  1.67%  42.5   15s

Cutting planes:
  Gomory: 12
  Cover: 3
  Implied bound: 5
  MIR: 36
  Mixing: 2
  StrongCG: 2
  Flow cover: 64
  GUB cover: 6
  Zero half: 6
  Relax-and-lift: 12

Explored 678 nodes (118802 simplex iterations) in 19.87 seconds (14.45 work units)
Thread count was 1 (of 16 available processors)

Solution count 10: 150 150 151 ... 164

Optimal solution found (tolerance 1.00e-04)
Best objective 1.500000000000e+02, best bound 1.500000000000e+02, gap 0.0000%

User-callback calls 6759, time in user-callback 0.01 sec
Stat(MathOptInterface.OPTIMAL, 150.0, 150.0, 0.0, 6.92963439932405e-310, 0.21259, 19.870914936065674, 678, Main.CFLG.LEVFP, "", #undef)
